c ---- [ banner ] ------------------------------------------------------------
c
c Kissat SAT Solver
c 
c Copyright (c) 2021-2024 Armin Biere University of Freiburg
c Copyright (c) 2019-2021 Armin Biere Johannes Kepler University Linz
c 
c Version 4.0.1 43f02cf3e992cb44653b35e5cb26f93281552ae0
c gcc (Ubuntu 13.2.0-23ubuntu4) 13.2.0 -W -Wall -O3 -DNDEBUG
c Thu Sep 12 12:27:46 CEST 2024 Linux abryzen9 6.8.0-41-generic x86_64
c
c ---- [ parsing ] -----------------------------------------------------------
c
c opened and reading DIMACS file:
c
c   /data/artifact/AMulet2.0_artifact/exp4/cnf_resyn3_64/64_64_U_SP_DT_RC_GenMul_resyn3.cnf
c
c parsed 'p cnf 24920 112279' header
c closing input after reading 2228752 bytes (2 MB)
c finished parsing after 0.03 seconds
c
c ---- [ options ] -----------------------------------------------------------
c
c --stable=0                       (different from default '1')
c
c ---- [ solving ] -----------------------------------------------------------
c
c  seconds switched rate     size/glue tier1  binary          remaining
c         MB reductions conflicts size  tier2    irredundant
c          level restarts redundant glue  trail          variables
c
c *  0.03  9 0 0 0  0 0   0   0 0.0 0 0 0 0 0% 8749 103528 24917 100%
c (  0.05 11 0 0 0  0 0   0   0 0.0 0 0 0 0 0% 8749 103528 24917 100%
c .  0.06 11 0 0 0  0 0   0   0 0.0 0 0 0 0 0% 8745 103528 24917 100%
c =  0.17 17 0 0 0  0 0   0   0 0.0 0 0 0 0 0% 9075 103524 24808 100%
c d  0.18 17 0 0 0  0 0   0   0 0.0 0 0 0 0 0% 8857 103524 24808 100%
c f  0.28 16 0 0 0  0 0   0   0 0.0 0 0 0 0 0% 13817 95755 27594 111%
c e  0.45 20 0 0 0  0 0   0   0 0.0 0 0 0 0 0% 8307 103428 18665 75%
c )  0.45 20 0 0 0  0 0   0   0 0.0 0 0 0 0 0% 8307 103428 18665 75%
c {  0.48 25 0 0 0  0 0   0   0 0.0 0 0 2 6 0% 8307 103428 18665 75%
c -  0.91 27 208 0 1 190 31 1002 721 4.6 93 20 7 33 31% 8319 103427 18665 75%
c -  1.07 27 235 0 2 212 22 2005 1149 4.3 70 17 5 25 30% 8368 103427 18665 75%
c d  1.22 27 230 0 2 232 22 2504 1541 4.4 67 15 4 23 30% 8339 103427 18644 75%
c u  1.24 27 230 0 2 232 22 2504 1211 4.4 67 15 4 23 30% 8344 103427 18644 75%
c v  1.27 27 230 0 2 232 22 2504 1133 4.4 67 15 4 23 30% 8344 103427 18644 75%
c w  1.29 27 230 0 2 232 22 2504 1133 4.4 67 15 4 23 30% 8344 103427 18644 75%
c =  1.42 27 230 0 2 232 22 2504 1133 4.4 67 15 4 23 30% 8542 103427 18545 74%
c d  1.43 27 230 0 2 232 22 2504 1127 4.4 67 15 4 23 30% 8342 103427 18544 74%
c f  1.48 27 230 0 2 232 22 2504 1127 4.4 67 15 4 23 30% 8893 102305 19112 77%
c c  1.55 22 230 0 2 232 22 2504 1124 4.4 67 15 4 23 30% 8902 102259 19107 77%
c d  1.56 22 230 0 2 232 22 2504 1124 4.4 67 15 4 23 30% 8892 102259 19107 77%
c
c  seconds   switched   rate       size/glue  tier1     binary          remaining
c         MB  reductions conflicts       size   tier2      irredundant
c           level restarts    redundant     glue    trail          variables
c
c u  1.58 22 230 0 2 232 22 2504 1101 4.4 67 15 4 23 30% 8892 102259 19107 77%
c v  1.62 22 230 0 2 232 22 2504 916 4.4 67 15 4 23 30% 8892 102259 19107 77%
c w  1.65 22 230 0 2 232 22 2504 916 4.4 67 15 4 23 30% 8892 102259 19107 77%
c =  1.72 22 230 0 2 232 22 2504 916 4.4 67 15 4 23 30% 9206 102259 18950 76%
c d  1.73 22 230 0 2 232 22 2504 916 4.4 67 15 4 23 30% 8854 102259 18950 76%
c f  1.77 22 230 0 2 232 22 2504 916 4.4 67 15 4 23 30% 8858 102253 18952 76%
c -  1.98 24 243 0 3 257 19 3421 1383 4.4 59 13 4 21 32% 8881 102253 18952 76%
c -  2.44 24 325 0 4 339 21 5154 2431 4.4 53 12 4 19 32% 8909 102253 18952 76%
c -  2.86 24 345 0 5 409 20 7154 3465 4.3 48 11 4 18 31% 8960 102253 18952 76%
c d  3.00 24 329 0 5 426 19 7706 3955 4.2 46 11 4 18 31% 8907 102253 18921 76%
c u  3.04 24 329 0 5 426 19 7706 3423 4.2 46 11 4 18 31% 8918 102253 18921 76%
c v  3.07 24 329 0 5 426 19 7706 3315 4.2 46 11 4 18 31% 8918 102253 18921 76%
c w  3.09 24 329 0 5 426 19 7706 3315 4.2 46 11 4 18 31% 8918 102253 18921 76%
c x  3.13 24 329 0 5 426 19 7706 3315 4.2 46 11 4 18 31% 8918 101912 18921 76%
c =  3.26 24 329 0 5 426 19 7706 3315 4.2 46 11 4 18 31% 9854 101912 18453 74%
c d  3.27 24 329 0 5 426 19 7706 3249 4.2 46 11 4 18 31% 8785 101912 18453 74%
c t  3.29 24 329 0 5 426 19 7706 3249 4.2 46 11 4 18 31% 8783 101912 18453 74%
c f  3.33 24 329 0 5 426 19 7706 3249 4.2 46 11 4 18 31% 8893 101743 18508 74%
c u  3.38 24 329 0 5 426 19 7706 2910 4.2 46 11 4 18 31% 8899 101743 18508 74%
c v  3.42 24 329 0 5 426 19 7706 2718 4.2 46 11 4 18 31% 8899 101743 18508 74%
c
c  seconds   switched   rate       size/glue  tier1     binary          remaining
c         MB  reductions conflicts       size   tier2      irredundant
c           level restarts    redundant     glue    trail          variables
c
c w  3.45 24 329 0 5 426 19 7706 2718 4.2 46 11 4 18 31% 8899 101743 18508 74%
c x  3.47 24 329 0 5 426 19 7706 2718 4.2 46 11 4 18 31% 8899 101633 18508 74%
c =  3.59 24 329 0 5 426 19 7706 2718 4.2 46 11 4 18 31% 9783 101633 18066 72%
c d  3.60 24 329 0 5 426 19 7706 2713 4.2 46 11 4 18 31% 8802 101633 18066 72%
c f  3.66 24 329 0 5 426 19 7706 2713 4.2 46 11 4 18 31% 10492 99098 18911 76%
c -  4.03 24 327 0 6 501 20 9391 3272 4.4 46 11 3 16 30% 10558 99098 18911 76%
c o  4.16 24 334 0 6 521 19 10007 3809 4.3 46 11 3 16 31% 10567 99098 18911 76%
c -  4.76 24 321 0 7 688 21 11840 4540 4.5 47 10 3 16 31% 10610 99098 18911 76%
c s  4.92 24 320 0 7 719 21 12505 5097 4.5 46 10 3 16 31% 10623 93337 18911 76%
c e  5.04 24 320 0 7 719 21 12505 5097 4.5 46 10 3 16 31% 10422 93443 18777 75%
c 2  5.04 24 320 0 7 719 21 12505 5097 4.5 46 10 3 16 31% 10420 93443 18777 75%
c s  5.04 24 320 0 7 719 21 12505 5097 4.5 46 10 3 16 31% 10420 93323 18777 75%
c e  5.05 24 320 0 7 719 21 12505 5097 4.5 46 10 3 16 31% 10418 93323 18775 75%
c ^  5.05 24 320 0 7 719 21 12505 5097 4.5 46 10 3 16 31% 10418 93323 18775 75%
c -  5.48 24 318 0 8 838 20 14485 5692 4.3 44 10 3 15 30% 10436 93323 18775 75%
c c  5.72 24 324 0 8 882 20 15785 6705 4.3 42 10 3 15 30% 10506 93089 18738 75%
c d  5.73 24 324 0 8 882 20 15785 6617 4.3 42 10 3 15 30% 10208 93089 18608 75%
c u  5.78 24 324 0 8 882 20 15785 5633 4.3 42 10 3 15 30% 10220 93089 18608 75%
c v  5.83 24 324 0 8 882 20 15785 5274 4.3 42 10 3 15 30% 10220 93089 18608 75%
c w  5.86 24 324 0 8 882 20 15785 5272 4.3 42 10 3 15 30% 10220 93089 18608 75%
c
c  seconds   switched   rate        size/glue  tier1     binary          remaining
c         MB  reductions  conflicts       size   tier2       irredundant
c           level restarts     redundant     glue    trail          variables
c
c x  5.90 24 324 0 8 882 20 15785 5272 4.3 42 10 3 15 30% 10220 93088 18608 75%
c =  6.08 24 324 0 8 882 20 15785 5272 4.3 42 10 3 15 30% 10678 93086 18379 74%
c d  6.09 24 324 0 8 882 20 15785 5167 4.3 42 10 3 15 30% 10153 93086 18378 74%
c t  6.11 24 324 0 8 882 20 15785 5167 4.3 42 10 3 15 30% 10119 93086 18378 74%
c f  6.16 24 324 0 8 882 20 15785 5167 4.3 42 10 3 15 30% 10129 93063 18383 74%
c u  6.21 24 324 0 8 882 20 15785 5026 4.3 42 10 3 15 30% 10132 93063 18383 74%
c v  6.26 24 324 0 8 882 20 15785 4741 4.3 42 10 3 15 30% 10132 93063 18383 74%
c w  6.34 24 324 0 8 882 20 15785 4732 4.3 42 10 3 15 30% 10132 93063 18383 74%
c =  6.54 24 324 0 8 882 20 15785 4732 4.3 42 10 3 15 30% 11284 93063 17807 71%
c d  6.55 24 324 0 8 882 20 15785 4719 4.3 42 10 3 15 30% 9911 93063 17807 71%
c -  6.81 24 318 0 9 932 19 17313 5059 4.2 40 10 3 14 29% 9999 93063 17807 71%
c o  7.50 24 315 0 9 1097 20 20064 7551 4.2 40 9 3 14 30% 10030 93063 17807 71%
c -  7.64 24 313 0 10 1126 20 20314 6758 4.3 40 9 3 14 30% 10031 93063 17807 71%
c -  8.22 24 313 0 11 1270 21 23476 7971 4.2 39 9 2 13 29% 10084 93063 17807 71%
c s  8.84 24 306 0 11 1428 22 25007 9319 4.4 41 9 2 13 30% 10119 89274 17807 71%
c e  8.95 24 306 0 11 1428 22 25007 9319 4.4 41 9 2 13 30% 8428 91720 16674 67%
c s  8.95 24 306 0 11 1428 22 25007 9319 4.4 41 9 2 13 30% 8428 91246 16674 67%
c ^  8.96 24 306 0 11 1428 22 25007 9319 4.4 41 9 2 13 30% 8428 91246 16674 67%
c -  9.35 24 303 0 12 1533 22 26793 8405 4.3 40 9 2 12 30% 8463 91246 16674 67%
c c  9.41 24 303 0 12 1538 22 26911 8501 4.3 40 9 2 12 30% 8551 90803 16611 67%
c
c  seconds   switched     rate        size/glue tier1     binary         remaining
c         MB   reductions   conflicts       size  tier2      irredundant
c           level   restarts     redundant    glue    trail         variables
c
c d  9.42 24 303 0 12 1538 22 26911 8418 4.3 40 9 2 12 30% 8281 90803 16528 66%
c u  9.46 24 303 0 12 1538 22 26911 7526 4.3 40 9 2 12 30% 8300 90803 16528 66%
c v  9.52 24 303 0 12 1538 22 26911 6538 4.3 40 9 2 12 30% 8302 90803 16528 66%
c w  9.53 24 303 0 12 1538 22 26911 6537 4.3 40 9 2 12 30% 8302 90803 16528 66%
c x  9.60 24 303 0 12 1538 22 26911 6537 4.3 40 9 2 12 30% 8302 89531 16528 66%
c =  9.88 24 303 0 12 1538 22 26911 6537 4.3 40 9 2 12 30% 11740 89531 14809 59%
c d  9.89 24 303 0 12 1538 22 26911 6285 4.3 40 9 2 12 30% 8227 89531 14807 59%
c t  9.90 24 303 0 12 1538 22 26911 6285 4.3 40 9 2 12 30% 8224 89531 14807 59%
c f  9.96 24 303 0 12 1538 22 26911 6285 4.3 40 9 2 12 30% 8228 89521 14809 59%
c c 10.02 24 303 0 12 1538 22 26911 6283 4.3 40 9 2 12 30% 8232 89505 14807 59%
c d 10.03 24 303 0 12 1538 22 26911 6283 4.3 40 9 2 12 30% 8228 89505 14807 59%
c u 10.07 24 303 0 12 1538 22 26911 5859 4.3 40 9 2 12 30% 8228 89505 14807 59%
c v 10.10 24 303 0 12 1538 22 26911 5713 4.3 40 9 2 12 30% 8228 89505 14807 59%
c w 10.11 24 303 0 12 1538 22 26911 5712 4.3 40 9 2 12 30% 8228 89505 14807 59%
c x 10.21 24 303 0 12 1538 22 26911 5712 4.3 40 9 2 12 30% 8228 82413 14807 59%
c = 10.46 24 303 0 12 1538 22 26911 5712 4.3 40 9 2 12 30% 11036 82345 13396 54%
c d 10.46 24 303 0 12 1538 22 26911 5664 4.3 40 9 2 12 30% 8201 82345 13396 54%
c - 11.23 24 288 0 13 1761 21 30259 7466 4.1 39 9 2 12 30% 8221 82344 13396 54%
c - 11.76 24 284 0 14 1904 21 33865 9377 4.0 37 9 2 11 30% 8246 82341 13396 54%
c i 12.22 24 282 0 14 2024 21 35690 11101 4.0 37 9 2 11 30% 8252 82335 13395 54%
c
c  seconds   switched     rate         size/glue tier1     binary         remaining
c         MB   reductions   conflicts        size  tier2      irredundant
c           level   restarts      redundant    glue    trail         variables
c
c - 12.44 24 279 0 15 2095 20 37607 10919 3.9 36 9 2 11 30% 8257 82334 13395 54%
c o 13.23 24 271 0 15 2372 21 40070 13226 4.0 36 9 2 11 30% 8272 82334 13395 54%
c d 13.59 24 268 0 15 2499 21 41241 14267 4.0 37 9 2 11 30% 8228 82330 13372 54%
c d 13.59 24 268 0 15 2499 21 41241 14261 4.0 37 9 2 11 30% 8226 82330 13371 54%
c u 13.65 24 268 0 15 2499 21 41241 12128 4.0 37 9 2 11 30% 8237 82330 13371 54%
c v 13.74 24 268 0 15 2499 21 41241 11334 4.0 37 9 2 11 30% 8237 82330 13371 54%
c w 13.79 24 268 0 15 2499 21 41241 11334 4.0 37 9 2 11 30% 8237 82330 13371 54%
c x 13.88 26 268 0 15 2499 21 41241 11334 4.0 37 9 2 11 30% 8237 74716 13371 54%
c = 14.16 26 268 0 15 2499 21 41241 11334 4.0 37 9 2 11 30% 8255 74716 13362 54%
c d 14.16 26 268 0 15 2499 21 41241 11322 4.0 37 9 2 11 30% 8231 74716 13360 54%
c t 14.18 26 268 0 15 2499 21 41241 11322 4.0 37 9 2 11 30% 8228 74716 13360 54%
c f 14.20 26 268 0 15 2499 21 41241 11322 4.0 37 9 2 11 30% 8232 74706 13362 54%
c c 14.25 26 268 0 15 2499 21 41241 11321 4.0 37 9 2 11 30% 8242 74670 13357 54%
c d 14.26 26 268 0 15 2499 21 41241 11321 4.0 37 9 2 11 30% 8232 74670 13357 54%
c u 14.31 26 268 0 15 2499 21 41241 10942 4.0 37 9 2 11 30% 8233 74670 13357 54%
c v 14.40 26 268 0 15 2499 21 41241 10001 4.0 37 9 2 11 30% 8234 74670 13357 54%
c w 14.46 26 268 0 15 2499 21 41241 10001 4.0 37 9 2 11 30% 8234 74670 13357 54%
c x 14.55 26 268 0 15 2499 21 41241 10001 4.0 37 9 2 11 30% 8234 69018 13357 54%
c = 14.83 26 268 0 15 2499 21 41241 10001 4.0 37 9 2 11 30% 8658 69018 13145 53%
c d 14.83 26 268 0 15 2499 21 41241 9954 4.0 37 9 2 11 30% 8228 69018 13144 53%
c
c  seconds   switched     rate        size/glue tier1     binary         remaining
c         MB   reductions   conflicts       size  tier2      irredundant
c           level   restarts     redundant    glue    trail         variables
c
c t 14.85 26 268 0 15 2499 21 41241 9954 4.0 37 9 2 11 30% 8226 69018 13144 53%
c - 14.96 26 267 0 16 2529 21 41479 8700 3.9 37 9 2 10 31% 8226 69015 13144 53%
c - 15.64 26 267 0 17 2762 21 45479 10609 3.9 36 9 2 10 30% 8262 69015 13144 53%
c - 16.31 26 257 0 18 2966 20 49602 12419 3.7 34 9 2 10 30% 8276 69014 13144 53%
c s 16.84 26 254 0 18 3154 20 52109 14699 3.8 35 9 2 10 30% 8284 66637 13144 53%
c e 16.91 26 254 0 18 3154 20 52109 14699 3.8 35 9 2 10 30% 8051 66746 12923 52%
c s 16.92 26 254 0 18 3154 20 52109 14699 3.8 35 9 2 10 30% 8051 66634 12923 52%
c e 16.92 26 254 0 18 3154 20 52109 14699 3.8 35 9 2 10 30% 8050 66639 12918 52%
c ^ 16.92 26 254 0 18 3154 20 52109 14699 3.8 35 9 2 10 30% 8050 66639 12918 52%
c i 16.94 26 249 0 18 3159 20 53242 14668 3.7 34 9 2 10 29% 8070 66639 12917 52%
c - 17.07 26 248 0 19 3199 20 53844 12892 3.7 34 9 2 9 29% 8096 66639 12917 52%
c - 17.32 26 243 0 20 3332 19 58202 14242 3.6 32 9 2 9 29% 8119 66639 12917 52%
c d 17.34 26 245 0 20 3339 19 58906 14600 3.6 32 9 2 9 28% 8088 66635 12900 52%
c u 17.38 26 245 0 20 3339 19 58906 12649 3.6 32 9 2 9 28% 8129 66635 12900 52%
c v 17.41 26 245 0 20 3339 19 58906 11731 3.6 32 9 2 9 28% 8129 66635 12900 52%
c w 17.42 26 245 0 20 3339 19 58906 11683 3.6 32 9 2 9 28% 8129 66635 12900 52%
c x 17.46 26 245 0 20 3339 19 58906 11683 3.6 32 9 2 9 28% 8129 66458 12900 52%
c = 17.62 26 245 0 20 3339 19 58906 11683 3.6 32 9 2 9 28% 8599 66458 12665 51%
c d 17.63 26 245 0 20 3339 19 58906 11437 3.6 32 9 2 9 28% 8104 66458 12659 51%
c t 17.64 26 245 0 20 3339 19 58906 11437 3.6 32 9 2 9 28% 8089 66458 12659 51%
c
c  seconds   switched     rate         size/glue tier1    binary         remaining
c         MB   reductions   conflicts        size  tier2     irredundant
c           level   restarts      redundant    glue   trail         variables
c
c f 17.65 26 245 0 20 3339 19 58906 11437 3.6 32 9 2 9 28% 8093 66438 12661 51%
c u 17.69 26 245 0 20 3339 19 58906 10962 3.6 32 9 2 9 28% 8100 66438 12661 51%
c v 17.71 26 245 0 20 3339 19 58906 10205 3.6 32 9 2 9 28% 8104 66438 12661 51%
c w 17.73 26 245 0 20 3339 19 58906 10198 3.6 32 9 2 9 28% 8104 66438 12661 51%
c = 17.89 26 245 0 20 3339 19 58906 10198 3.6 32 9 2 9 28% 8666 66430 12379 50%
c d 17.89 26 245 0 20 3339 19 58906 9829 3.6 32 9 2 9 28% 8060 66430 12377 50%
c t 17.90 26 245 0 20 3339 19 58906 9829 3.6 32 9 2 9 28% 8059 66430 12377 50%
c i 17.97 26 243 0 20 3376 19 59448 10338 3.6 32 9 2 9 28% 8062 66430 12376 50%
c i 17.97 26 243 0 20 3376 19 59478 10359 3.6 32 9 2 9 28% 8065 66430 12375 50%
c i 17.97 26 243 0 20 3376 19 59513 10367 3.6 32 9 2 9 28% 8070 66430 12374 50%
c i 18.04 26 243 0 20 3422 19 59890 10717 3.6 32 9 2 9 28% 8074 66430 12373 50%
c i 18.04 26 242 0 20 3428 19 59911 10723 3.6 32 9 2 9 28% 8079 66430 12372 50%
c i 18.12 26 242 0 20 3486 19 60322 11100 3.6 32 9 2 9 29% 8082 66430 12370 50%
c i 18.12 26 241 0 20 3489 19 60337 11111 3.6 32 9 2 9 28% 8083 66430 12367 50%
c i 18.19 26 239 0 20 3548 19 61170 11904 3.6 32 9 2 9 29% 8085 66430 12366 50%
c i 18.20 26 239 0 20 3549 19 61230 11936 3.6 32 9 2 9 29% 8092 66430 12364 50%
c - 18.45 26 238 0 21 3725 19 62674 11480 3.6 32 9 2 9 29% 8082 66430 12364 50%
c i 18.74 26 232 0 21 3939 19 65201 13724 3.5 32 9 2 9 29% 8113 66430 12363 50%
c i 18.85 26 230 0 21 3997 19 66305 14710 3.5 31 9 2 8 29% 8119 66430 12362 50%
c - 18.94 26 228 0 22 4046 19 67256 13615 3.5 31 9 2 8 29% 8131 66430 12362 50%
c
c  seconds   switched     rate         size/glue tier1    binary         remaining
c         MB   reductions   conflicts        size  tier2     irredundant
c           level   restarts      redundant    glue   trail         variables
c
c i 18.96 26 227 0 22 4056 18 67788 14048 3.5 31 9 2 8 29% 8141 66430 12361 50%
c o 19.13 26 221 0 22 4138 18 70130 16129 3.4 30 9 2 8 28% 8170 66430 12361 50%
c i 19.25 26 219 0 22 4245 18 71465 17243 3.4 30 9 2 8 28% 8194 66430 12358 50%
c - 19.30 26 218 0 23 4273 18 71948 15189 3.4 30 9 2 8 28% 8181 66430 12358 50%
c i 19.51 26 213 0 23 4399 17 74749 17676 3.3 30 9 2 8 28% 8201 66430 12357 50%
c i 19.55 26 208 0 23 4411 17 76644 19153 3.3 29 9 2 8 28% 8242 66430 12356 50%
c - 19.57 26 208 0 24 4425 17 76744 16463 3.3 29 9 2 8 28% 8242 66430 12356 50%
c i 19.57 26 208 0 24 4425 17 76750 16463 3.3 29 9 2 8 28% 8244 66430 12355 50%
c i 19.60 26 207 0 24 4439 17 77325 16965 3.3 29 9 2 8 28% 8251 66430 12354 50%
c i 19.64 26 206 0 24 4474 17 77696 17287 3.3 29 9 2 8 28% 8257 66430 12352 50%
c i 19.83 26 203 0 24 4582 17 79584 18982 3.3 29 9 2 8 28% 8277 66430 12350 50%
c i 19.88 26 202 0 24 4616 17 79929 19274 3.3 29 9 2 8 28% 8284 66430 12349 50%
c i 19.88 26 202 0 24 4618 17 79979 19312 3.3 28 9 2 8 28% 8287 66430 12348 50%
c c 19.92 26 202 0 24 4620 17 80018 19350 3.3 29 9 2 8 28% 8350 65079 12183 49%
c d 19.92 26 202 0 24 4620 17 80018 18070 3.3 29 9 2 8 28% 8073 65039 12183 49%
c d 19.92 26 202 0 24 4620 17 80018 18008 3.3 29 9 2 8 28% 8018 65039 12158 49%
c u 19.97 26 202 0 24 4620 17 80018 15451 3.3 29 9 2 8 28% 8035 65039 12157 49%
c v 20.01 26 202 0 24 4620 17 80018 14630 3.3 29 9 2 8 28% 8035 65039 12157 49%
c w 20.03 26 202 0 24 4620 17 80018 14624 3.3 29 9 2 8 28% 8035 65039 12157 49%
c x 20.07 26 202 0 24 4620 17 80018 14617 3.3 29 9 2 8 28% 8040 61259 12157 49%
c
c  seconds   switched     rate         size/glue tier1    binary         remaining
c         MB   reductions   conflicts        size  tier2     irredundant
c           level   restarts      redundant    glue   trail         variables
c
c = 20.12 26 202 0 24 4620 17 80018 14617 3.3 29 9 2 8 28% 8237 61124 12039 48%
c } 20.12 26 202 0 24 4620 17 80018 14617 3.3 29 9 2 8 28% 8237 61124 12136 49%
c 0 20.12 26 202 0 24 4620 17 80018 14617 3.3 29 9 2 8 28% 8237 61124 12136 49%
c
c ---- [ result ] ------------------------------------------------------------
c
s UNSATISFIABLE
c
c ---- [ profiling ] ---------------------------------------------------------
c
c          13.77   68.45 %  search
c          13.77   68.45 %  focused
c           5.87   29.18 %  simplify
c           5.68   28.24 %  probe
c           2.30   11.44 %  sweep
c           1.97    9.77 %  vivify
c           0.52    2.57 %  factor
c           0.42    2.07 %  eliminate
c           0.40    1.97 %  preprocess
c           0.38    1.88 %  substitute
c           0.38    1.87 %  congruence
c           0.16    0.79 %  fastel
c           0.13    0.66 %  reduce
c           0.09    0.47 %  transitive
c           0.08    0.39 %  subsume
c           0.05    0.25 %  lucky
c           0.05    0.24 %  backbone
c           0.03    0.15 %  parse
c =============================================
c          20.12  100.00 %  total
c
c ---- [ statistics ] --------------------------------------------------------
c
c chronological:                         2818                4 %  conflicts
c conflicts:                            80018             3977.74 per second
c congruent:                              277                1 %  variables
c decisions:                          1317796               16.47 per conflict
c eliminated:                           10424               42 %  variables
c factored:                              4267               17 %  variables
c fast_eliminated:                       8929               86 %  eliminated
c fast_subsumed:                          248                2 %  per subsumed
c iterations:                              23                0 %  variables
c propagations:                      68209837          3390751    per second
c reductions:                              24             3334    interval
c reordered:                                4            20004    interval
c restarts:                              4620               17    interval
c strengthened:                           186                0 %  checks
c substituted:                           6563               26 %  variables
c subsumed:                             12881                1 %  checks
c switched:                                 0                0    interval
c vivified:                             49786               15 %  checks
c
c ---- [ glue usage ] --------------------------------------------------------
c
c focused glue 2   used 43365 clauses 24.65% accumulated 68.18% tier1
c focused glue 3   used 14128 clauses  8.03% accumulated 76.21%
c focused glue 4-6 used 19641 clauses 11.16% accumulated 87.38%
c focused glue 7   used  3634 clauses  2.07% accumulated 89.44%
c focused glue 8   used  2776 clauses  1.58% accumulated 91.02% tier2
c
c ---- [ resources ] ---------------------------------------------------------
c
c maximum-resident-set-size:         28401664 bytes         27 MB
c process-time:                            20s              20.12 seconds
c
c ---- [ shutting down ] -----------------------------------------------------
c
c exit 20
